1 of 1 MIP starts provided solutions.
MIP start 'm1' defined initial solution with objective 153151.0000.
Tried aggregator 1 time.
MIP Presolve eliminated 0 rows and 1 columns.
MIP Presolve modified 305000 coefficients.
Reduced MIP has 75150 rows, 37900 columns, and 9560974 nonzeros.
Reduced MIP has 37500 binaries, 0 generals, 0 SOSs, and 0 indicators.
Presolve time = 7.73 sec. (4529.62 ticks)
Probing time = 0.30 sec. (109.00 ticks)
Tried aggregator 1 time.
Reduced MIP has 75150 rows, 37900 columns, and 9560974 nonzeros.
Reduced MIP has 37500 binaries, 0 generals, 0 SOSs, and 0 indicators.
Presolve time = 4.83 sec. (2362.22 ticks)
Probing time = 0.27 sec. (108.96 ticks)
Clique table members: 150.
MIP emphasis: balance optimality and feasibility.
MIP search method: dynamic search.
Parallel mode: none, using 1 thread.
Root relaxation solution time = 2.29 sec. (1162.65 ticks)

        Nodes                                         Cuts/
   Node  Left     Objective  IInf  Best Integer    Best Bound    ItCnt     Gap

*     0+    0                       153151.0000   2.87432e+07      428     --- 
      0     0   153259.7693    76   153151.0000   153259.7693      428    0.07%
      0     0   153208.3552    38   153151.0000      Cuts: 44      487    0.04%
      0     0   153189.4884    32   153151.0000      Cuts: 44      531    0.03%
*     0+    0                       153160.0000   153189.4884      531    0.02%

Repeating presolve.
Tried aggregator 1 time.
MIP Presolve eliminated 34093 rows and 35247 columns.
MIP Presolve modified 92956 coefficients.
Reduced MIP has 41057 rows, 2653 columns, and 645803 nonzeros.
Reduced MIP has 2253 binaries, 0 generals, 0 SOSs, and 0 indicators.
Presolve time = 1.48 sec. (981.51 ticks)
Probing time = 0.03 sec. (10.44 ticks)
Cover probing fixed 0 vars, tightened 1228 bounds.
Tried aggregator 1 time.
MIP Presolve eliminated 11 rows and 0 columns.
MIP Presolve modified 490865 coefficients.
Reduced MIP has 41046 rows, 2653 columns, and 645781 nonzeros.
Reduced MIP has 2253 binaries, 0 generals, 0 SOSs, and 0 indicators.
Presolve time = 0.56 sec. (355.07 ticks)
Represolve time = 2.25 sec. (1428.93 ticks)
Probing time = 0.03 sec. (10.47 ticks)
Clique table members: 150.
MIP emphasis: balance optimality and feasibility.
MIP search method: dynamic search.
Parallel mode: none, using 1 thread.
Root relaxation solution time = 0.50 sec. (288.13 ticks)

        Nodes                                         Cuts/
   Node  Left     Objective  IInf  Best Integer    Best Bound    ItCnt     Gap

*     0+    0                       153160.0000   153189.4884     1210    0.02%
      0     0   153188.3638    32   153160.0000   153188.3638     1210    0.02%
      0     2   153188.0746    32   153160.0000   153188.0746     1212    0.02%
Elapsed time = 39.26 sec. (20815.01 ticks, tree = 0.00 MB, solutions = 2)
     10     8   153164.0665    30   153160.0000   153188.0746     1264    0.02%
     21     9   153164.8467    29   153160.0000   153188.0746     1297    0.02%
     30    14   153182.3509    27   153160.0000   153181.8300     1346    0.01%
     40    17   153164.9906    32   153160.0000   153181.8300     1408    0.01%
     50    21   153181.3761    27   153160.0000   153179.3817     1438    0.01%
     63    22        cutoff         153160.0000   153178.3567     1507    0.01%

Implied bound cuts applied:  29
Flow cuts applied:  20
Mixed integer rounding cuts applied:  11
Gomory fractional cuts applied:  23

Root node processing (before b&c):
  Real time             =   39.24 sec. (20792.00 ticks)
Sequential b&c:
  Real time             =    2.46 sec. (1949.34 ticks)
                          ------------
Total (root+branch&cut) =   41.69 sec. (22741.34 ticks)
